NAME : A-n7-k3
COMMENT : (Augerat et al, Min no of trucks: 5, Optimal value: 784)
TYPE : CVRP
DIMENSION : 7
EDGE_WEIGHT_TYPE : EUC_2D 
CAPACITY : 100
NODE_COORD_SECTION 
 1 82 76
 2 29 89
 3 58 30
 4 5 10
 5 50 93
 6 57 69
 7 23 15
DEMAND_SECTION 
1 0 
2 19 
3 21 
4 6 
5 19 
6 7 
7 12
DEPOT_SECTION 
 1  
 -1  
EOF 
